
Gurobi 5.6.0 (mac64) logging started Wed Apr 30 15:28:13 2014


Gurobi 5.6.0 (mac64) logging started Mon Mar 16 22:16:23 2015


Gurobi 5.6.0 (mac64) logging started Mon Mar 16 22:17:25 2015


Gurobi 5.6.0 (mac64) logging started Mon Mar 16 22:17:45 2015


Gurobi 5.6.0 (mac64) logging started Mon Mar 16 22:18:03 2015


Gurobi 5.6.0 (mac64) logging started Mon Mar 16 22:19:44 2015


Gurobi 5.6.0 (mac64) logging started Mon Mar 16 22:20:00 2015


Gurobi 5.6.0 (mac64) logging started Mon Mar 16 22:20:47 2015


Gurobi 5.6.0 (mac64) logging started Mon Mar 16 22:21:54 2015


Gurobi 5.6.0 (mac64) logging started Mon Mar 16 22:22:20 2015


Gurobi 5.6.0 (mac64) logging started Mon Mar 16 22:23:40 2015


Gurobi 5.6.0 (mac64) logging started Mon Mar 16 22:24:29 2015


Gurobi 5.6.0 (mac64) logging started Mon Mar 16 22:24:50 2015


Gurobi 5.6.0 (mac64) logging started Mon Mar 16 22:25:17 2015


Gurobi 5.6.0 (mac64) logging started Mon Mar 16 22:26:00 2015


Gurobi 5.6.0 (mac64) logging started Mon Mar 16 22:26:33 2015


Gurobi 5.6.0 (mac64) logging started Mon Mar 16 22:32:04 2015


Gurobi 5.6.0 (mac64) logging started Mon Mar 16 22:35:05 2015


Gurobi 5.6.0 (mac64) logging started Mon Mar 16 22:38:19 2015


Gurobi 5.6.0 (mac64) logging started Mon Mar 16 22:38:46 2015


Gurobi 5.6.0 (mac64) logging started Mon Mar 16 22:41:17 2015


Gurobi 5.6.0 (mac64) logging started Mon Mar 16 22:42:26 2015


Gurobi 5.6.0 (mac64) logging started Mon Mar 16 22:42:54 2015


Gurobi 5.6.0 (mac64) logging started Mon Mar 16 22:52:08 2015

